0 3753
2401 3652
4802 3564
7203 3495
9604 3444
12005 3384
14406 3341
16807 3308
19208 3285
21609 3271
24010 3256
26411 3236
28812 3230
31213 3217
33614 3207
36015 3196
38416 3193
40817 3187
43218 3185
45619 3182
48020 3174
50421 3165
52822 3155
60025 3153
62426 3143
64827 3138
124852 3134
127253 3127
129654 3124
134456 3112
136857 3108
